c FILE: DSJC250.9
c
c SOURCE: David Johnson (dsj@research.att.com)
c
c DESCRIPTION: Random graph used in the paper
c              "Optimization by Simulated Annealing: An
c               Experimental Evaluation; Part II, Graph
c               Coloring and Number Partitioning" by
c              David S. Johnson, Cecilia R. Aragon, 
c              Lyle A. McGeoch and Catherine Schevon
c              Operations Research, 39, 378-406 (1991)
c
p edge 250 55794
e 9 8
e 10 8
e 11 8
e 12 8
e 14 8
e 15 8
e 16 8
e 18 8
e 18 16
e 19 8
e 19 16
e 20 8
e 20 16
e 21 8
e 21 16
e 22 8
e 22 16
e 23 8
e 23 16
e 24 8
e 24 16
e 25 8
e 25 16
e 25 24
e 26 8
e 26 16
e 26 24
e 27 8
e 27 16
e 27 24
e 28 8
e 28 16
e 28 24
e 29 8
e 29 16
e 29 24
e 30 8
e 30 16
e 30 24
e 31 8
e 31 16
e 31 24
e 32 16
e 32 24
e 33 8
e 33 16
e 33 24
e 33 32
e 34 8
e 34 16
e 34 24
e 34 32
e 35 8
e 35 16
e 35 24
e 35 32
e 36 8
e 36 16
e 36 24
e 36 32
e 37 8
e 37 16
e 37 24
e 37 32
e 38 8
e 38 24
e 38 32
e 39 8
e 39 16
e 39 24
e 39 32
e 40 8
e 40 16
e 40 24
e 40 32
e 41 8
e 41 16
e 41 24
e 41 32
e 41 40
e 42 8
e 42 16
e 42 24
e 42 32
e 42 40
e 43 8
e 43 16
e 43 32
e 43 40
e 44 8
e 44 16
e 44 24
e 44 32
e 44 40
e 45 8
e 45 16
e 45 24
e 45 32
e 46 8
e 46 16
e 46 32
e 46 40
e 47 8
e 47 16
e 47 24
e 47 32
e 47 40
e 48 16
e 48 24
e 48 32
e 48 40
e 49 24
e 49 32
e 49 40
e 49 48
e 50 8
e 50 16
e 50 24
e 50 32
e 50 48
e 51 8
e 51 16
e 51 24
e 51 32
e 51 48
e 52 8
e 52 16
e 52 24
e 52 32
e 52 40
e 52 48
e 53 8
e 53 16
e 53 24
e 53 32
e 53 48
e 54 8
e 54 16
e 54 24
e 54 32
e 54 40
e 54 48
e 55 8
e 55 24
e 55 32
e 55 40
e 55 48
e 56 8
e 56 16
e 56 24
e 56 32
e 56 48
e 57 8
e 57 16
e 57 24
e 57 32
e 57 40
e 57 48
e 57 56
e 58 8
e 58 16
e 58 24
e 58 32
e 58 40
e 58 48
e 58 56
e 59 8
e 59 16
e 59 24
e 59 32
e 59 40
e 59 48
e 59 56
e 60 8
e 60 24
e 60 32
e 60 48
e 60 56
e 61 8
e 61 16
e 61 24
e 61 32
e 61 48
e 61 56
e 62 8
e 62 16
e 62 24
e 62 32
e 62 40
e 62 48
e 62 56
e 63 8
e 63 16
e 63 24
e 63 32
e 63 40
e 63 48
e 63 56
e 64 8
e 64 16
e 64 24
e 64 32
e 64 40
e 64 48
e 64 56
e 65 8
e 65 16
e 65 24
e 65 32
e 65 40
e 65 48
e 65 56
e 65 64
e 66 8
e 66 16
e 66 24
e 66 32
e 66 40
e 66 48
e 66 56
e 66 64
e 67 8
e 67 16
e 67 32
e 67 40
e 67 48
e 67 56
e 68 8
e 68 16
e 68 24
e 68 32
e 68 40
e 68 48
e 68 56
e 69 8
e 69 16
e 69 24
e 69 32
e 69 40
e 69 48
e 69 56
e 69 64
e 70 8
e 70 16
e 70 24
e 70 32
e 70 40
e 70 48
e 70 56
e 70 64
e 71 8
e 71 16
e 71 24
e 71 32
e 71 40
e 71 48
e 71 56
e 71 64
e 72 8
e 72 16
e 72 24
e 72 32
e 72 40
e 72 48
e 72 56
e 72 64
e 73 16
e 73 24
e 73 32
e 73 40
e 73 48
e 73 56
e 73 64
e 73 72
e 74 8
e 74 16
e 74 24
e 74 32
e 74 40
e 74 48
e 74 72
e 75 8
e 75 16
e 75 24
e 75 48
e 75 56
e 75 64
e 75 72
e 76 8
e 76 24
e 76 40
e 76 48
e 76 56
e 76 64
e 76 72
e 77 16
e 77 24
e 77 32
e 77 40
e 77 48
e 77 56
e 77 64
e 77 72
e 78 8
e 78 16
e 78 24
e 78 40
e 78 48
e 78 56
e 78 64
e 78 72
e 79 8
e 79 24
e 79 32
e 79 64
e 79 72
e 80 16
e 80 24
e 80 32
e 80 40
e 80 48
e 80 56
e 80 64
e 80 72
e 81 8
e 81 16
e 81 24
e 81 32
e 81 40
e 81 48
e 81 56
e 81 72
e 81 80
e 82 8
e 82 16
e 82 24
e 82 32
e 82 40
e 82 48
e 82 56
e 82 80
e 83 8
e 83 24
e 83 32
e 83 40
e 83 48
e 83 64
e 83 72
e 83 80
e 84 8
e 84 16
e 84 24
e 84 40
e 84 48
e 84 56
e 84 64
e 84 72
e 84 80
e 85 8
e 85 16
e 85 24
e 85 32
e 85 40
e 85 48
e 85 56
e 85 64
e 85 72
e 86 8
e 86 16
e 86 24
e 86 32
e 86 40
e 86 48
e 86 56
e 86 64
e 86 72
e 86 80
e 87 8
e 87 16
e 87 24
e 87 32
e 87 40
e 87 48
e 87 56
e 87 64
e 87 72
e 87 80
e 88 8
e 88 16
e 88 24
e 88 32
e 88 40
e 88 48
e 88 56
e 88 64
e 88 72
e 88 80
e 89 8
e 89 16
e 89 24
e 89 32
e 89 40
e 89 48
e 89 56
e 89 64
e 89 72
e 89 80
e 89 88
e 90 8
e 90 16
e 90 24
e 90 32
e 90 40
e 90 48
e 90 56
e 90 64
e 90 72
e 90 80
e 90 88
e 91 8
e 91 16
e 91 24
e 91 32
e 91 40
e 91 48
e 91 56
e 91 64
e 91 72
e 91 80
e 91 88
e 92 16
e 92 24
e 92 32
e 92 40
e 92 48
e 92 56
e 92 64
e 92 80
e 92 88
e 93 8
e 93 16
e 93 24
e 93 32
e 93 40
e 93 48
e 93 56
e 93 72
e 93 80
e 94 8
e 94 16
e 94 24
e 94 40
e 94 48
e 94 56
e 94 64
e 94 72
e 94 80
e 94 88
e 95 8
e 95 16
e 95 24
e 95 32
e 95 40
e 95 48
e 95 56
e 95 64
e 95 72
e 95 80
e 95 88
e 96 8
e 96 16
e 96 24
e 96 32
e 96 40
e 96 48
e 96 56
e 96 64
e 96 72
e 96 80
e 97 8
e 97 16
e 97 24
e 97 40
e 97 48
e 97 56
e 97 72
e 97 80
e 97 88
e 97 96
e 98 8
e 98 24
e 98 32
e 98 40
e 98 48
e 98 56
e 98 64
e 98 72
e 98 80
e 98 88
e 98 96
e 99 8
e 99 24
e 99 32
e 99 48
e 99 56
e 99 64
e 99 72
e 99 80
e 99 88
e 99 96
e 100 8
e 100 16
e 100 24
e 100 32
e 100 40
e 100 48
e 100 56
e 100 64
e 100 72
e 100 80
e 100 88
e 100 96
e 101 8
e 101 16
e 101 24
e 101 32
e 101 40
e 101 48
e 101 56
e 101 72
e 101 88
e 101 96
e 102 16
e 102 24
e 102 32
e 102 40
e 102 56
e 102 72
e 102 88
e 102 96
e 103 8
e 103 16
e 103 24
e 103 32
e 103 40
e 103 48
e 103 56
e 103 64
e 103 72
e 103 80
e 103 88
e 103 96
e 104 8
e 104 16
e 104 24
e 104 32
e 104 40
e 104 48
e 104 56
e 104 64
e 104 72
e 104 80
e 104 88
e 104 96
e 105 8
e 105 24
e 105 32
e 105 40
e 105 56
e 105 72
e 105 80
e 105 88
e 105 96
e 105 104
e 106 8
e 106 16
e 106 24
e 106 32
e 106 40
e 106 48
e 106 56
e 106 64
e 106 72
e 106 80
e 106 88
e 106 104
e 107 8
e 107 16
e 107 24
e 107 32
e 107 40
e 107 48
e 107 64
e 107 72
e 107 80
e 107 88
e 107 96
e 107 104
e 108 8
e 108 16
e 108 32
e 108 40
e 108 48
e 108 56
e 108 64
e 108 80
e 108 88
e 108 96
e 108 104
e 109 8
e 109 24
e 109 32
e 109 40
e 109 48
e 109 56
e 109 64
e 109 72
e 109 80
e 109 88
e 109 96
e 109 104
e 110 8
e 110 16
e 110 24
e 110 32
e 110 40
e 110 48
e 110 56
e 110 64
e 110 80
e 110 88
e 111 8
e 111 16
e 111 24
e 111 32
e 111 40
e 111 48
e 111 56
e 111 64
e 111 72
e 111 80
e 111 88
e 111 96
e 112 8
e 112 24
e 112 32
e 112 40
e 112 48
e 112 56
e 112 80
e 112 96
e 112 104
e 113 8
e 113 16
e 113 24
e 113 32
e 113 48
e 113 56
e 113 64
e 113 72
e 113 80
e 113 88
e 113 96
e 113 104
e 113 112
e 114 8
e 114 16
e 114 32
e 114 40
e 114 56
e 114 72
e 114 88
e 114 96
e 114 104
e 115 8
e 115 16
e 115 32
e 115 40
e 115 48
e 115 56
e 115 64
e 115 72
e 115 88
e 115 96
e 115 104
e 115 112
e 116 8
e 116 16
e 116 24
e 116 32
e 116 40
e 116 48
e 116 56
e 116 64
e 116 72
e 116 80
e 116 88
e 116 96
e 116 104
e 116 112
e 117 8
e 117 16
e 117 24
e 117 32
e 117 40
e 117 48
e 117 56
e 117 64
e 117 72
e 117 80
e 117 88
e 117 96
e 117 104
e 117 112
e 118 8
e 118 16
e 118 24
e 118 32
e 118 40
e 118 48
e 118 56
e 118 64
e 118 72
e 118 80
e 118 88
e 118 96
e 118 104
e 118 112
e 119 8
e 119 16
e 119 24
e 119 32
e 119 40
e 119 48
e 119 56
e 119 64
e 119 80
e 119 88
e 119 96
e 119 104
e 119 112
e 120 8
e 120 16
e 120 24
e 120 32
e 120 40
e 120 48
e 120 56
e 120 64
e 120 72
e 120 80
e 120 88
e 120 96
e 120 104
e 120 112
e 121 8
e 121 16
e 121 24
e 121 32
e 121 40
e 121 48
e 121 56
e 121 64
e 121 72
e 121 80
e 121 96
e 121 104
e 121 112
e 121 120
e 122 8
e 122 16
e 122 24
e 122 32
e 122 40
e 122 48
e 122 56
e 122 64
e 122 72
e 122 80
e 122 88
e 122 96
e 122 104
e 122 112
e 122 120
e 123 8
e 123 16
e 123 24
e 123 32
e 123 40
e 123 48
e 123 56
e 123 64
e 123 72
e 123 80
e 123 88
e 123 96
e 123 104
e 123 120
e 124 8
e 124 16
e 124 24
e 124 32
e 124 40
e 124 56
e 124 64
e 124 72
e 124 80
e 124 96
e 124 104
e 124 112
e 124 120
e 125 8
e 125 16
e 125 24
e 125 32
e 125 40
e 125 48
e 125 56
e 125 64
e 125 72
e 125 80
e 125 88
e 125 96
e 125 104
e 125 112
e 126 8
e 126 16
e 126 24
e 126 32
e 126 40
e 126 48
e 126 56
e 126 64
e 126 88
e 126 96
e 126 104
e 126 112
e 127 8
e 127 16
e 127 24
e 127 32
e 127 40
e 127 48
e 127 56
e 127 64
e 127 72
e 127 80
e 127 88
e 127 96
e 127 104
e 127 112
e 127 120
e 128 8
e 128 16
e 128 24
e 128 32
e 128 40
e 128 48
e 128 56
e 128 80
e 128 88
e 128 96
e 128 104
e 128 112
e 128 120
e 129 8
e 129 16
e 129 24
e 129 32
e 129 40
e 129 48
e 129 56
e 129 64
e 129 80
e 129 88
e 129 96
e 129 104
e 129 112
e 129 120
e 130 8
e 130 16
e 130 24
e 130 32
e 130 40
e 130 48
e 130 56
e 130 64
e 130 80
e 130 96
e 130 104
e 130 112
e 130 128
e 131 8
e 131 16
e 131 24
e 131 40
e 131 48
e 131 56
e 131 64
e 131 72
e 131 80
e 131 96
e 131 104
e 131 112
e 131 120
e 132 8
e 132 16
e 132 24
e 132 32
e 132 40
e 132 48
e 132 56
e 132 72
e 132 80
e 132 88
e 132 112
e 132 120
e 132 128
e 133 8
e 133 16
e 133 24
e 133 32
e 133 40
e 133 48
e 133 72
e 133 80
e 133 88
e 133 96
e 133 104
e 133 112
e 133 120
e 133 128
e 134 8
e 134 16
e 134 32
e 134 40
e 134 48
e 134 56
e 134 64
e 134 72
e 134 80
e 134 88
e 134 96
e 134 104
e 134 112
e 134 120
e 134 128
e 135 8
e 135 16
e 135 24
e 135 32
e 135 40
e 135 48
e 135 56
e 135 64
e 135 72
e 135 80
e 135 88
e 135 96
e 135 104
e 135 112
e 135 120
e 135 128
e 136 16
e 136 24
e 136 32
e 136 48
e 136 56
e 136 72
e 136 80
e 136 88
e 136 96
e 136 104
e 136 112
e 136 120
e 136 128
e 137 8
e 137 16
e 137 24
e 137 32
e 137 40
e 137 56
e 137 64
e 137 72
e 137 80
e 137 88
e 137 96
e 137 104
e 137 112
e 137 120
e 137 128
e 137 136
e 138 16
e 138 24
e 138 40
e 138 48
e 138 56
e 138 64
e 138 72
e 138 80
e 138 88
e 138 96
e 138 104
e 138 112
e 138 120
e 138 128
e 138 136
e 139 8
e 139 16
e 139 24
e 139 32
e 139 40
e 139 48
e 139 56
e 139 64
e 139 72
e 139 80
e 139 88
e 139 96
e 139 104
e 139 112
e 139 128
e 139 136
e 140 8
e 140 16
e 140 24
e 140 32
e 140 40
e 140 48
e 140 56
e 140 64
e 140 72
e 140 80
e 140 88
e 140 96
e 140 104
e 140 112
e 140 120
e 140 128
e 141 8
e 141 16
e 141 24
e 141 40
e 141 48
e 141 56
e 141 64
e 141 72
e 141 80
e 141 88
e 141 96
e 141 104
e 141 112
e 141 120
e 141 128
e 141 136
e 142 8
e 142 16
e 142 24
e 142 32
e 142 40
e 142 48
e 142 56
e 142 64
e 142 72
e 142 80
e 142 88
e 142 104
e 142 112
e 142 128
e 142 136
e 143 8
e 143 16
e 143 32
e 143 40
e 143 56
e 143 64
e 143 72
e 143 80
e 143 88
e 143 96
e 143 104
e 143 112
e 143 120
e 143 128
e 143 136
e 144 8
e 144 16
e 144 24
e 144 32
e 144 40
e 144 48
e 144 56
e 144 64
e 144 72
e 144 88
e 144 96
e 144 104
e 144 112
e 144 120
e 144 128
e 144 136
e 145 8
e 145 24
e 145 32
e 145 40
e 145 48
e 145 56
e 145 80
e 145 88
e 145 96
e 145 104
e 145 112
e 145 120
e 145 128
e 145 144
e 146 8
e 146 16
e 146 24
e 146 32
e 146 40
e 146 48
e 146 64
e 146 72
e 146 80
e 146 88
e 146 96
e 146 120
e 146 128
e 146 136
e 147 8
e 147 16
e 147 24
e 147 32
e 147 40
e 147 48
e 147 56
e 147 64
e 147 80
e 147 88
e 147 96
e 147 104
e 147 112
e 147 120
e 147 128
e 147 136
e 147 144
e 148 8
e 148 16
e 148 24
e 148 32
e 148 48
e 148 56
e 148 64
e 148 72
e 148 80
e 148 88
e 148 96
e 148 104
e 148 112
e 148 120
e 148 128
e 148 136
e 148 144
e 149 16
e 149 24
e 149 32
e 149 40
e 149 48
e 149 56
e 149 64
e 149 72
e 149 80
e 149 88
e 149 96
e 149 104
e 149 112
e 149 120
e 149 136
e 149 144
e 150 8
e 150 24
e 150 32
e 150 40
e 150 48
e 150 56
e 150 64
e 150 72
e 150 80
e 150 88
e 150 96
e 150 104
e 150 112
e 150 120
e 150 128
e 150 136
e 150 144
e 151 8
e 151 16
e 151 24
e 151 32
e 151 40
e 151 48
e 151 56
e 151 64
e 151 72
e 151 80
e 151 96
e 151 104
e 151 112
e 151 120
e 151 128
e 151 136
e 152 8
e 152 24
e 152 32
e 152 40
e 152 48
e 152 56
e 152 64
e 152 72
e 152 80
e 152 88
e 152 96
e 152 104
e 152 112
e 152 120
e 152 128
e 152 136
e 152 144
e 153 8
e 153 16
e 153 24
e 153 40
e 153 48
e 153 56
e 153 64
e 153 72
e 153 80
e 153 88
e 153 96
e 153 104
e 153 112
e 153 120
e 153 128
e 153 136
e 153 144
e 153 152
e 154 8
e 154 16
e 154 24
e 154 32
e 154 40
e 154 48
e 154 56
e 154 64
e 154 72
e 154 80
e 154 96
e 154 112
e 154 120
e 154 128
e 154 136
e 154 152
e 155 16
e 155 24
e 155 32
e 155 40
e 155 48
e 155 56
e 155 64
e 155 72
e 155 80
e 155 88
e 155 96
e 155 104
e 155 112
e 155 120
e 155 136
e 155 144
e 156 8
e 156 16
e 156 24
e 156 32
e 156 48
e 156 56
e 156 64
e 156 72
e 156 80
e 156 88
e 156 96
e 156 112
e 156 120
e 156 128
e 156 136
e 156 144
e 156 152
e 157 8
e 157 16
e 157 24
e 157 32
e 157 40
e 157 48
e 157 56
e 157 64
e 157 72
e 157 80
e 157 88
e 157 96
e 157 104
e 157 112
e 157 120
e 157 128
e 157 136
e 157 152
e 158 8
e 158 16
e 158 24
e 158 32
e 158 48
e 158 56
e 158 64
e 158 72
e 158 80
e 158 88
e 158 96
e 158 104
e 158 112
e 158 120
e 158 136
e 158 144
e 158 152
e 159 8
e 159 16
e 159 24
e 159 32
e 159 40
e 159 48
e 159 56
e 159 64
e 159 72
e 159 80
e 159 88
e 159 96
e 159 104
e 159 112
e 159 120
e 159 128
e 159 136
e 159 144
e 159 152
e 160 8
e 160 16
e 160 32
e 160 40
e 160 48
e 160 56
e 160 72
e 160 80
e 160 88
e 160 96
e 160 104
e 160 112
e 160 120
e 160 128
e 160 136
e 160 144
e 160 152
e 161 8
e 161 16
e 161 24
e 161 32
e 161 40
e 161 48
e 161 56
e 161 64
e 161 72
e 161 80
e 161 96
e 161 104
e 161 112
e 161 120
e 161 136
e 161 144
e 161 152
e 161 160
e 162 8
e 162 16
e 162 24
e 162 32
e 162 48
e 162 56
e 162 64
e 162 72
e 162 80
e 162 96
e 162 104
e 162 112
e 162 120
e 162 128
e 162 144
e 162 152
e 162 160
e 163 8
e 163 16
e 163 32
e 163 48
e 163 56
e 163 64
e 163 72
e 163 80
e 163 96
e 163 104
e 163 120
e 163 128
e 163 136
e 163 144
e 163 152
e 163 160
e 164 8
e 164 16
e 164 24
e 164 32
e 164 40
e 164 48
e 164 56
e 164 64
e 164 72
e 164 80
e 164 88
e 164 96
e 164 104
e 164 112
e 164 120
e 164 128
e 164 136
e 164 144
e 164 152
e 164 160
e 165 8
e 165 16
e 165 24
e 165 32
e 165 40
e 165 48
e 165 56
e 165 64
e 165 72
e 165 80
e 165 88
e 165 96
e 165 104
e 165 112
e 165 120
e 165 128
e 165 136
e 165 144
e 165 152
e 165 160
e 166 8
e 166 16
e 166 24
e 166 32
e 166 48
e 166 56
e 166 64
e 166 72
e 166 80
e 166 88
e 166 96
e 166 104
e 166 112
e 166 120
e 166 136
e 166 144
e 166 152
e 166 160
e 167 8
e 167 16
e 167 24
e 167 32
e 167 40
e 167 48
e 167 56
e 167 72
e 167 80
e 167 88
e 167 96
e 167 104
e 167 112
e 167 120
e 167 128
e 167 136
e 167 144
e 167 152
e 167 160
e 168 8
e 168 16
e 168 24
e 168 32
e 168 40
e 168 48
e 168 56
e 168 64
e 168 72
e 168 80
e 168 88
e 168 96
e 168 104
e 168 112
e 168 136
e 168 144
e 168 152
e 168 160
e 169 8
e 169 16
e 169 24
e 169 40
e 169 48
e 169 64
e 169 72
e 169 80
e 169 88
e 169 104
e 169 112
e 169 120
e 169 128
e 169 136
e 169 144
e 169 152
e 169 160
e 169 168
e 170 8
e 170 16
e 170 24
e 170 32
e 170 40
e 170 48
e 170 56
e 170 64
e 170 72
e 170 80
e 170 88
e 170 96
e 170 120
e 170 136
e 170 144
e 170 152
e 170 160
e 170 168
e 171 16
e 171 24
e 171 32
e 171 40
e 171 48
e 171 56
e 171 64
e 171 72
e 171 80
e 171 88
e 171 96
e 171 112
e 171 120
e 171 128
e 171 144
e 171 152
e 171 160
e 171 168
e 172 16
e 172 24
e 172 40
e 172 48
e 172 56
e 172 64
e 172 72
e 172 80
e 172 96
e 172 104
e 172 112
e 172 128
e 172 136
e 172 144
e 172 160
e 172 168
e 173 8
e 173 16
e 173 24
e 173 32
e 173 40
e 173 56
e 173 64
e 173 72
e 173 80
e 173 88
e 173 96
e 173 104
e 173 112
e 173 120
e 173 128
e 173 136
e 173 144
e 173 160
e 173 168
e 174 8
e 174 16
e 174 24
e 174 32
e 174 40
e 174 48
e 174 56
e 174 64
e 174 80
e 174 88
e 174 96
e 174 104
e 174 112
e 174 120
e 174 128
e 174 136
e 174 144
e 174 152
e 174 160
e 175 8
e 175 16
e 175 24
e 175 32
e 175 40
e 175 48
e 175 56
e 175 64
e 175 72
e 175 80
e 175 88
e 175 96
e 175 112
e 175 120
e 175 128
e 175 144
e 175 152
e 175 160
e 175 168
e 176 8
e 176 16
e 176 24
e 176 32
e 176 40
e 176 48
e 176 56
e 176 64
e 176 72
e 176 80
e 176 88
e 176 96
e 176 112
e 176 120
e 176 128
e 176 136
e 176 144
e 176 160
e 176 168
e 177 8
e 177 16
e 177 24
e 177 32
e 177 40
e 177 48
e 177 56
e 177 64
e 177 72
e 177 80
e 177 96
e 177 104
e 177 112
e 177 120
e 177 128
e 177 136
e 177 144
e 177 152
e 177 160
e 177 168
e 177 176
e 178 8
e 178 16
e 178 32
e 178 40
e 178 48
e 178 56
e 178 64
e 178 72
e 178 80
e 178 88
e 178 96
e 178 104
e 178 112
e 178 120
e 178 128
e 178 136
e 178 144
e 178 168
e 178 176
e 179 8
e 179 16
e 179 24
e 179 32
e 179 40
e 179 48
e 179 56
e 179 64
e 179 72
e 179 80
e 179 96
e 179 104
e 179 112
e 179 128
e 179 136
e 179 144
e 179 152
e 179 160
e 179 168
e 179 176
e 180 8
e 180 16
e 180 24
e 180 32
e 180 40
e 180 56
e 180 64
e 180 72
e 180 80
e 180 88
e 180 112
e 180 120
e 180 128
e 180 136
e 180 144
e 180 152
e 180 160
e 180 168
e 180 176
e 181 8
e 181 16
e 181 24
e 181 32
e 181 40
e 181 56
e 181 64
e 181 72
e 181 80
e 181 96
e 181 104
e 181 112
e 181 120
e 181 128
e 181 136
e 181 144
e 181 152
e 181 160
e 181 168
e 181 176
e 182 8
e 182 24
e 182 32
e 182 40
e 182 48
e 182 56
e 182 64
e 182 72
e 182 80
e 182 96
e 182 104
e 182 112
e 182 120
e 182 128
e 182 136
e 182 144
e 182 152
e 182 160
e 182 176
e 183 8
e 183 16
e 183 24
e 183 32
e 183 40
e 183 48
e 183 56
e 183 72
e 183 80
e 183 88
e 183 96
e 183 104
e 183 112
e 183 120
e 183 128
e 183 136
e 183 152
e 183 160
e 183 168
e 183 176
e 184 8
e 184 16
e 184 24
e 184 32
e 184 40
e 184 48
e 184 56
e 184 64
e 184 72
e 184 80
e 184 88
e 184 96
e 184 104
e 184 112
e 184 120
e 184 136
e 184 144
e 184 168
e 184 176
e 185 8
e 185 16
e 185 24
e 185 32
e 185 40
e 185 48
e 185 56
e 185 64
e 185 72
e 185 80
e 185 88
e 185 96
e 185 104
e 185 112
e 185 120
e 185 128
e 185 136
e 185 144
e 185 152
e 185 176
e 185 184
e 186 8
e 186 24
e 186 32
e 186 48
e 186 56
e 186 64
e 186 72
e 186 80
e 186 88
e 186 96
e 186 104
e 186 128
e 186 136
e 186 144
e 186 152
e 186 168
e 186 176
e 186 184
e 187 8
e 187 16
e 187 24
e 187 32
e 187 40
e 187 48
e 187 56
e 187 64
e 187 72
e 187 80
e 187 88
e 187 96
e 187 104
e 187 112
e 187 128
e 187 136
e 187 144
e 187 152
e 187 160
e 187 168
e 187 176
e 187 184
e 188 16
e 188 24
e 188 32
e 188 40
e 188 48
e 188 56
e 188 64
e 188 72
e 188 80
e 188 88
e 188 96
e 188 104
e 188 112
e 188 120
e 188 128
e 188 136
e 188 144
e 188 152
e 188 160
e 188 168
e 188 184
e 189 8
e 189 16
e 189 24
e 189 32
e 189 64
e 189 72
e 189 80
e 189 88
e 189 96
e 189 104
e 189 112
e 189 120
e 189 128
e 189 144
e 189 152
e 189 160
e 189 168
e 189 176
e 189 184
e 190 8
e 190 16
e 190 24
e 190 32
e 190 40
e 190 56
e 190 64
e 190 72
e 190 80
e 190 88
e 190 104
e 190 112
e 190 120
e 190 128
e 190 136
e 190 144
e 190 152
e 190 160
e 190 168
e 190 176
e 190 184
e 191 8
e 191 16
e 191 24
e 191 32
e 191 40
e 191 48
e 191 56
e 191 72
e 191 80
e 191 88
e 191 96
e 191 104
e 191 112
e 191 120
e 191 136
e 191 144
e 191 152
e 191 160
e 191 168
e 191 176
e 191 184
e 192 8
e 192 16
e 192 24
e 192 32
e 192 40
e 192 48
e 192 56
e 192 64
e 192 80
e 192 88
e 192 96
e 192 104
e 192 120
e 192 128
e 192 136
e 192 144
e 192 152
e 192 160
e 192 168
e 192 176
e 192 184
e 193 8
e 193 16
e 193 24
e 193 32
e 193 40
e 193 48
e 193 56
e 193 64
e 193 72
e 193 80
e 193 88
e 193 96
e 193 104
e 193 112
e 193 128
e 193 136
e 193 144
e 193 152
e 193 160
e 193 168
e 193 184
e 193 192
e 194 8
e 194 24
e 194 32
e 194 40
e 194 48
e 194 56
e 194 64
e 194 72
e 194 80
e 194 88
e 194 96
e 194 104
e 194 112
e 194 120
e 194 128
e 194 136
e 194 144
e 194 152
e 194 160
e 194 168
e 194 176
e 194 184
e 194 192
e 195 8
e 195 16
e 195 24
e 195 40
e 195 48
e 195 56
e 195 64
e 195 72
e 195 80
e 195 96
e 195 104
e 195 112
e 195 120
e 195 128
e 195 136
e 195 144
e 195 152
e 195 160
e 195 168
e 195 176
e 195 184
e 195 192
e 196 16
e 196 24
e 196 32
e 196 40
e 196 48
e 196 56
e 196 64
e 196 72
e 196 104
e 196 112
e 196 120
e 196 128
e 196 136
e 196 144
e 196 152
e 196 160
e 196 168
e 196 176
e 196 184
e 196 192
e 197 8
e 197 16
e 197 24
e 197 32
e 197 40
e 197 48
e 197 56
e 197 64
e 197 72
e 197 80
e 197 88
e 197 96
e 197 104
e 197 112
e 197 120
e 197 128
e 197 136
e 197 144
e 197 152
e 197 160
e 197 168
e 197 176
e 197 184
e 197 192
e 198 8
e 198 16
e 198 24
e 198 32
e 198 56
e 198 64
e 198 72
e 198 80
e 198 88
e 198 96
e 198 104
e 198 120
e 198 128
e 198 136
e 198 144
e 198 152
e 198 160
e 198 168
e 198 184
e 198 192
e 199 8
e 199 24
e 199 32
e 199 40
e 199 48
e 199 56
e 199 64
e 199 72
e 199 80
e 199 88
e 199 96
e 199 104
e 199 112
e 199 120
e 199 128
e 199 136
e 199 144
e 199 152
e 199 160
e 199 168
e 199 184
e 199 192
e 200 8
e 200 24
e 200 32
e 200 40
e 200 56
e 200 64
e 200 72
e 200 80
e 200 96
e 200 104
e 200 120
e 200 128
e 200 136
e 200 144
e 200 152
e 200 168
e 200 176
e 200 184
e 200 192
e 201 8
e 201 16
e 201 24
e 201 32
e 201 40
e 201 48
e 201 56
e 201 64
e 201 72
e 201 88
e 201 96
e 201 104
e 201 120
e 201 128
e 201 136
e 201 144
e 201 160
e 201 168
e 201 176
e 201 184
e 202 8
e 202 16
e 202 24
e 202 32
e 202 40
e 202 48
e 202 56
e 202 64
e 202 72
e 202 80
e 202 88
e 202 104
e 202 112
e 202 120
e 202 128
e 202 136
e 202 144
e 202 152
e 202 160
e 202 168
e 202 176
e 202 184
e 202 200
e 203 8
e 203 16
e 203 24
e 203 32
e 203 40
e 203 48
e 203 64
e 203 72
e 203 80
e 203 96
e 203 112
e 203 120
e 203 128
e 203 136
e 203 144
e 203 152
e 203 160
e 203 168
e 203 176
e 203 184
e 203 192
e 203 200
e 204 16
e 204 40
e 204 48
e 204 56
e 204 64
e 204 72
e 204 80
e 204 88
e 204 96
e 204 104
e 204 112
e 204 120
e 204 136
e 204 144
e 204 160
e 204 168
e 204 176
e 204 184
e 204 192
e 204 200
e 205 8
e 205 16
e 205 24
e 205 32
e 205 40
e 205 48
e 205 56
e 205 64
e 205 72
e 205 80
e 205 88
e 205 96
e 205 104
e 205 112
e 205 120
e 205 128
e 205 136
e 205 144
e 205 152
e 205 160
e 205 168
e 205 176
e 205 184
e 205 192
e 205 200
e 206 16
e 206 32
e 206 40
e 206 48
e 206 56
e 206 64
e 206 72
e 206 80
e 206 88
e 206 96
e 206 112
e 206 120
e 206 128
e 206 136
e 206 144
e 206 152
e 206 160
e 206 168
e 206 176
e 206 184
e 206 192
e 206 200
e 207 8
e 207 16
e 207 24
e 207 32
e 207 40
e 207 48
e 207 64
e 207 72
e 207 80
e 207 88
e 207 104
e 207 112
e 207 120
e 207 128
e 207 136
e 207 144
e 207 160
e 207 176
e 207 184
e 207 192
e 207 200
e 208 8
e 208 16
e 208 32
e 208 40
e 208 48
e 208 56
e 208 64
e 208 72
e 208 80
e 208 96
e 208 104
e 208 112
e 208 120
e 208 128
e 208 136
e 208 144
e 208 152
e 208 160
e 208 168
e 208 176
e 208 184
e 208 192
e 208 200
e 209 16
e 209 24
e 209 32
e 209 40
e 209 48
e 209 56
e 209 72
e 209 80
e 209 88
e 209 96
e 209 112
e 209 120
e 209 128
e 209 144
e 209 152
e 209 160
e 209 168
e 209 176
e 209 184
e 209 200
e 209 208
e 210 8
e 210 16
e 210 24
e 210 32
e 210 40
e 210 48
e 210 56
e 210 64
e 210 72
e 210 80
e 210 88
e 210 96
e 210 104
e 210 112
e 210 120
e 210 128
e 210 136
e 210 144
e 210 152
e 210 160
e 210 168
e 210 176
e 210 184
e 210 192
e 210 208
e 211 8
e 211 16
e 211 24
e 211 32
e 211 48
e 211 56
e 211 64
e 211 72
e 211 80
e 211 88
e 211 96
e 211 104
e 211 120
e 211 128
e 211 136
e 211 144
e 211 152
e 211 160
e 211 168
e 211 176
e 211 184
e 211 192
e 211 208
e 212 8
e 212 16
e 212 24
e 212 32
e 212 40
e 212 48
e 212 56
e 212 64
e 212 72
e 212 80
e 212 88
e 212 96
e 212 104
e 212 112
e 212 120
e 212 128
e 212 136
e 212 144
e 212 152
e 212 160
e 212 168
e 212 176
e 212 184
e 212 192
e 212 200
e 212 208
e 213 8
e 213 16
e 213 24
e 213 32
e 213 40
e 213 48
e 213 64
e 213 72
e 213 80
e 213 88
e 213 96
e 213 104
e 213 112
e 213 120
e 213 128
e 213 136
e 213 144
e 213 152
e 213 160
e 213 168
e 213 176
e 213 184
e 213 192
e 213 208
e 214 8
e 214 16
e 214 24
e 214 32
e 214 40
e 214 48
e 214 56
e 214 64
e 214 72
e 214 88
e 214 96
e 214 104
e 214 112
e 214 120
e 214 128
e 214 136
e 214 144
e 214 152
e 214 168
e 214 176
e 214 184
e 214 192
e 214 200
e 214 208
e 215 8
e 215 16
e 215 24
e 215 32
e 215 40
e 215 48
e 215 56
e 215 64
e 215 80
e 215 88
e 215 112
e 215 128
e 215 136
e 215 144
e 215 152
e 215 160
e 215 168
e 215 176
e 215 184
e 215 192
e 215 200
e 216 8
e 216 16
e 216 24
e 216 32
e 216 40
e 216 48
e 216 56
e 216 72
e 216 80
e 216 88
e 216 96
e 216 104
e 216 112
e 216 120
e 216 128
e 216 136
e 216 144
e 216 152
e 216 168
e 216 176
e 216 184
e 216 192
e 216 200
e 216 208
e 217 8
e 217 16
e 217 24
e 217 32
e 217 40
e 217 56
e 217 64
e 217 72
e 217 80
e 217 88
e 217 96
e 217 104
e 217 112
e 217 120
e 217 128
e 217 136
e 217 144
e 217 168
e 217 176
e 217 192
e 217 208
e 217 216
e 218 8
e 218 16
e 218 24
e 218 32
e 218 40
e 218 48
e 218 56
e 218 64
e 218 72
e 218 88
e 218 96
e 218 104
e 218 112
e 218 120
e 218 128
e 218 136
e 218 144
e 218 152
e 218 160
e 218 168
e 218 176
e 218 184
e 218 192
e 218 200
e 218 208
e 218 216
e 219 8
e 219 16
e 219 24
e 219 40
e 219 72
e 219 80
e 219 88
e 219 96
e 219 112
e 219 120
e 219 128
e 219 136
e 219 144
e 219 152
e 219 160
e 219 168
e 219 184
e 219 200
e 219 208
e 219 216
e 220 8
e 220 24
e 220 32
e 220 40
e 220 56
e 220 64
e 220 72
e 220 80
e 220 88
e 220 96
e 220 104
e 220 112
e 220 120
e 220 136
e 220 144
e 220 160
e 220 176
e 220 184
e 220 192
e 220 200
e 220 208
e 220 216
e 221 8
e 221 16
e 221 24
e 221 32
e 221 40
e 221 48
e 221 56
e 221 64
e 221 72
e 221 80
e 221 88
e 221 96
e 221 104
e 221 112
e 221 120
e 221 128
e 221 136
e 221 144
e 221 152
e 221 160
e 221 168
e 221 184
e 221 192
e 221 200
e 221 216
e 222 8
e 222 24
e 222 32
e 222 40
e 222 56
e 222 72
e 222 80
e 222 88
e 222 104
e 222 120
e 222 128
e 222 136
e 222 144
e 222 152
e 222 160
e 222 168
e 222 176
e 222 184
e 222 192
e 222 208
e 222 216
e 223 8
e 223 16
e 223 24
e 223 32
e 223 40
e 223 48
e 223 56
e 223 64
e 223 72
e 223 80
e 223 96
e 223 104
e 223 112
e 223 120
e 223 128
e 223 144
e 223 152
e 223 160
e 223 168
e 223 184
e 223 192
e 223 200
e 223 216
e 224 16
e 224 24
e 224 32
e 224 40
e 224 48
e 224 56
e 224 64
e 224 72
e 224 80
e 224 88
e 224 96
e 224 104
e 224 112
e 224 120
e 224 128
e 224 136
e 224 152
e 224 160
e 224 176
e 224 184
e 224 192
e 224 200
e 224 208
e 224 216
e 225 8
e 225 16
e 225 24
e 225 32
e 225 40
e 225 48
e 225 56
e 225 64
e 225 72
e 225 80
e 225 88
e 225 96
e 225 104
e 225 112
e 225 120
e 225 128
e 225 136
e 225 144
e 225 152
e 225 160
e 225 168
e 225 176
e 225 184
e 225 192
e 225 200
e 225 208
e 225 216
e 225 224
e 226 8
e 226 16
e 226 24
e 226 32
e 226 40
e 226 56
e 226 64
e 226 72
e 226 96
e 226 104
e 226 112
e 226 120
e 226 128
e 226 136
e 226 144
e 226 152
e 226 168
e 226 176
e 226 192
e 226 200
e 226 208
e 226 216
e 226 224
e 227 8
e 227 24
e 227 32
e 227 40
e 227 48
e 227 56
e 227 64
e 227 72
e 227 80
e 227 88
e 227 96
e 227 104
e 227 112
e 227 120
e 227 128
e 227 136
e 227 144
e 227 152
e 227 160
e 227 168
e 227 176
e 227 184
e 227 192
e 227 200
e 227 208
e 227 216
e 227 224
e 228 8
e 228 16
e 228 24
e 228 32
e 228 40
e 228 48
e 228 56
e 228 64
e 228 72
e 228 80
e 228 88
e 228 96
e 228 112
e 228 120
e 228 128
e 228 136
e 228 144
e 228 152
e 228 160
e 228 168
e 228 176
e 228 184
e 228 192
e 228 200
e 228 208
e 228 216
e 228 224
e 229 8
e 229 16
e 229 24
e 229 32
e 229 40
e 229 56
e 229 64
e 229 80
e 229 88
e 229 96
e 229 104
e 229 112
e 229 120
e 229 128
e 229 136
e 229 144
e 229 152
e 229 160
e 229 168
e 229 176
e 229 184
e 229 192
e 229 200
e 229 208
e 229 216
e 229 224
e 230 16
e 230 24
e 230 32
e 230 40
e 230 48
e 230 56
e 230 64
e 230 72
e 230 80
e 230 88
e 230 96
e 230 112
e 230 120
e 230 128
e 230 144
e 230 152
e 230 160
e 230 176
e 230 184
e 230 192
e 230 200
e 230 216
e 230 224
e 231 8
e 231 16
e 231 24
e 231 32
e 231 40
e 231 48
e 231 56
e 231 64
e 231 72
e 231 80
e 231 88
e 231 96
e 231 104
e 231 112
e 231 120
e 231 128
e 231 136
e 231 144
e 231 152
e 231 160
e 231 168
e 231 176
e 231 184
e 231 192
e 231 200
e 231 208
e 231 216
e 231 224
e 232 8
e 232 16
e 232 24
e 232 32
e 232 40
e 232 56
e 232 64
e 232 72
e 232 80
e 232 88
e 232 96
e 232 104
e 232 112
e 232 120
e 232 128
e 232 136
e 232 144
e 232 152
e 232 160
e 232 168
e 232 176
e 232 192
e 232 200
e 232 208
e 232 216
e 232 224
e 233 8
e 233 16
e 233 24
e 233 40
e 233 48
e 233 56
e 233 64
e 233 72
e 233 80
e 233 88
e 233 96
e 233 104
e 233 112
e 233 120
e 233 128
e 233 136
e 233 152
e 233 168
e 233 176
e 233 184
e 233 192
e 233 200
e 233 208
e 233 216
e 233 232
e 234 8
e 234 16
e 234 24
e 234 32
e 234 40
e 234 56
e 234 64
e 234 72
e 234 80
e 234 88
e 234 96
e 234 104
e 234 112
e 234 128
e 234 136
e 234 144
e 234 152
e 234 168
e 234 176
e 234 184
e 234 192
e 234 200
e 234 208
e 234 216
e 234 232
e 235 8
e 235 16
e 235 24
e 235 32
e 235 56
e 235 64
e 235 72
e 235 88
e 235 96
e 235 104
e 235 112
e 235 120
e 235 128
e 235 136
e 235 152
e 235 160
e 235 168
e 235 176
e 235 184
e 235 192
e 235 200
e 235 208
e 235 216
e 235 224
e 235 232
e 236 8
e 236 16
e 236 32
e 236 40
e 236 48
e 236 64
e 236 72
e 236 80
e 236 88
e 236 96
e 236 112
e 236 120
e 236 128
e 236 136
e 236 144
e 236 152
e 236 160
e 236 168
e 236 176
e 236 192
e 236 200
e 236 208
e 236 216
e 236 224
e 236 232
e 237 8
e 237 16
e 237 24
e 237 32
e 237 48
e 237 56
e 237 64
e 237 72
e 237 80
e 237 88
e 237 96
e 237 104
e 237 112
e 237 120
e 237 128
e 237 136
e 237 144
e 237 152
e 237 160
e 237 168
e 237 176
e 237 184
e 237 200
e 237 208
e 237 224
e 238 8
e 238 16
e 238 24
e 238 32
e 238 40
e 238 48
e 238 56
e 238 64
e 238 72
e 238 80
e 238 96
e 238 104
e 238 112
e 238 120
e 238 128
e 238 144
e 238 152
e 238 160
e 238 168
e 238 176
e 238 184
e 238 192
e 238 200
e 238 208
e 238 224
e 239 8
e 239 32
e 239 40
e 239 48
e 239 56
e 239 72
e 239 80
e 239 96
e 239 104
e 239 112
e 239 120
e 239 144
e 239 152
e 239 160
e 239 176
e 239 200
e 239 208
e 239 216
e 239 224
e 240 8
e 240 16
e 240 24
e 240 32
e 240 40
e 240 48
e 240 56
e 240 64
e 240 72
e 240 80
e 240 88
e 240 96
e 240 104
e 240 112
e 240 120
e 240 128
e 240 136
e 240 144
e 240 152
e 240 160
e 240 168
e 240 176
e 240 184
e 240 200
e 240 216
e 240 224
e 240 232
e 241 8
e 241 16
e 241 24
e 241 32
e 241 40
e 241 48
e 241 56
e 241 64
e 241 72
e 241 80
e 241 88
e 241 96
e 241 104
e 241 112
e 241 120
e 241 128
e 241 136
e 241 144
e 241 152
e 241 160
e 241 168
e 241 176
e 241 184
e 241 192
e 241 208
e 241 216
e 241 224
e 241 232
e 241 240
e 242 8
e 242 16
e 242 24
e 242 40
e 242 48
e 242 56
e 242 64
e 242 72
e 242 80
e 242 88
e 242 96
e 242 104
e 242 112
e 242 128
e 242 136
e 242 144
e 242 152
e 242 160
e 242 168
e 242 176
e 242 184
e 242 192
e 242 200
e 242 208
e 242 216
e 242 224
e 242 232
e 242 240
e 243 8
e 243 16
e 243 24
e 243 32
e 243 40
e 243 48
e 243 64
e 243 72
e 243 80
e 243 88
e 243 96
e 243 104
e 243 112
e 243 120
e 243 128
e 243 144
e 243 152
e 243 160
e 243 168
e 243 176
e 243 184
e 243 192
e 243 200
e 243 208
e 243 224
e 243 240
e 244 16
e 244 24
e 244 32
e 244 40
e 244 48
e 244 56
e 244 64
e 244 72
e 244 80
e 244 88
e 244 96
e 244 104
e 244 112
e 244 120
e 244 128
e 244 136
e 244 144
e 244 152
e 244 160
e 244 168
e 244 176
e 244 184
e 244 192
e 244 200
e 244 208
e 244 216
e 244 224
e 244 232
e 244 240
e 245 8
e 245 16
e 245 32
e 245 40
e 245 48
e 245 64
e 245 72
e 245 80
e 245 88
e 245 96
e 245 112
e 245 120
e 245 128
e 245 136
e 245 144
e 245 152
e 245 160
e 245 176
e 245 184
e 245 192
e 245 200
e 245 208
e 245 216
e 245 224
e 245 232
e 245 240
e 246 8
e 246 16
e 246 24
e 246 32
e 246 40
e 246 48
e 246 56
e 246 64
e 246 72
e 246 80
e 246 88
e 246 96
e 246 104
e 246 112
e 246 120
e 246 136
e 246 144
e 246 152
e 246 160
e 246 168
e 246 176
e 246 184
e 246 192
e 246 208
e 246 216
e 246 224
e 246 232
e 246 240
e 247 8
e 247 16
e 247 24
e 247 40
e 247 48
e 247 56
e 247 64
e 247 72
e 247 80
e 247 88
e 247 104
e 247 112
e 247 120
e 247 128
e 247 136
e 247 144
e 247 152
e 247 160
e 247 168
e 247 176
e 247 184
e 247 192
e 247 200
e 247 216
e 247 224
e 247 232
e 247 240
e 248 8
e 248 16
e 248 24
e 248 32
e 248 40
e 248 48
e 248 56
e 248 64
e 248 72
e 248 80
e 248 88
e 248 104
e 248 112
e 248 120
e 248 128
e 248 136
e 248 144
e 248 152
e 248 168
e 248 176
e 248 184
e 248 192
e 248 200
e 248 208
e 248 216
e 248 224
e 248 232
e 248 240
e 249 8
e 249 16
e 249 24
e 249 32
e 249 48
e 249 56
e 249 64
e 249 72
e 249 80
e 249 88
e 249 96
e 249 104
e 249 112
e 249 120
e 249 128
e 249 136
e 249 152
e 249 160
e 249 168
e 249 176
e 249 184
e 249 200
e 249 216
e 249 224
e 249 232
e 249 240
e 249 248
e 250 8
e 250 16
e 250 24
e 250 32
e 250 40
e 250 48
e 250 56
e 250 64
e 250 72
e 250 80
e 250 88
e 250 96
e 250 104
e 250 120
e 250 128
e 250 136
e 250 144
e 250 152
e 250 160
e 250 168
e 250 176
e 250 184
e 250 192
e 250 200
e 250 208
e 250 216
e 250 224
e 250 240
e 250 248
